702 5
10 10 10 10 10 

0 0 0 0 0 0 5 2 54 106 118 170 
0 0 0 0 0 0 5 3 4 5 6 17 
1 2 1 1 2 1 4 18 15 12 8 
7 4 5 6 4 5 4 18 15 11 9 
7 7 3 5 4 4 3 18 9 7 
2 4 6 2 5 4 2 18 9 
1 6 7 3 4 5 4 22 15 10 244 
2 5 7 4 6 5 1 9 
9 3 4 3 5 4 2 22 10 
7 10 6 3 6 5 3 21 20 13 
4 6 5 9 6 4 3 22 21 14 
8 5 7 5 9 5 2 21 16 
6 4 5 5 2 3 1 14 
1 2 5 6 4 2 1 16 
8 4 2 6 7 5 1 16 
10 2 4 7 8 5 4 29 28 23 19 
6 6 8 5 5 5 2 29 18 
8 9 5 2 4 1 3 26 24 23 
3 4 7 9 5 4 2 26 24 
6 4 6 8 8 2 2 26 25 
4 3 6 4 3 5 1 23 
3 2 6 7 4 4 1 23 
5 5 4 3 6 5 1 25 
9 6 3 8 3 2 1 25 
6 6 4 3 4 9 1 27 
10 7 7 5 4 8 1 27 
1 4 4 6 7 4 3 35 33 30 
2 3 7 4 4 6 3 35 33 31 
2 4 5 3 4 5 2 33 30 
5 9 5 8 4 8 1 31 
9 4 5 6 5 8 1 32 
8 7 7 4 10 7 3 39 36 34 
9 7 7 6 5 3 3 41 36 34 
2 4 4 5 7 3 2 44 37 
6 7 8 3 5 4 1 36 
9 4 6 3 3 8 1 38 
10 6 2 2 7 6 1 38 
6 4 4 5 5 7 1 40 
7 5 6 5 3 5 1 41 
9 6 4 7 6 8 1 42 
4 6 3 8 4 4 1 42 
3 5 6 8 6 5 1 43 
5 7 4 4 3 4 2 50 45 
6 10 2 4 4 6 2 50 45 
1 9 3 7 3 6 2 48 46 
2 6 4 5 2 7 1 47 
8 2 5 3 6 3 2 52 49 
9 5 3 5 5 8 1 49 
6 3 7 5 9 7 1 51 
6 3 4 7 7 4 1 51 
1 2 5 4 3 7 1 53 
5 2 7 4 5 5 1 53 
0 0 0 0 0 0 1 702 
0 0 0 0 0 0 4 55 56 57 58 
3 1 3 3 1 2 4 66 61 60 59 
6 5 1 8 5 5 4 66 61 60 59 
1 7 9 3 4 5 2 61 59 
5 2 7 6 2 4 1 59 
7 4 4 3 7 3 3 64 63 62 
3 5 5 2 8 5 3 64 63 62 
7 4 3 3 6 8 2 68 63 
8 7 5 6 3 4 3 69 68 67 
4 4 4 3 4 3 1 65 
7 5 7 8 6 6 1 65 
6 3 5 6 6 9 3 74 69 67 
4 5 5 5 9 2 2 68 67 
7 8 6 4 3 7 2 71 70 
9 8 3 7 4 6 2 74 72 
10 6 2 5 4 8 1 70 
6 8 2 7 5 5 1 72 
1 5 4 4 6 6 1 72 
10 3 6 4 3 7 3 81 78 73 
6 8 5 10 6 7 3 77 76 75 
9 4 4 5 6 8 3 81 76 75 
10 6 9 3 3 6 1 79 
9 4 4 3 10 3 1 79 
8 2 3 6 4 4 1 79 
3 5 4 6 8 4 1 79 
6 4 5 3 3 7 1 80 
2 5 8 4 6 2 1 82 
1 3 5 6 3 2 1 82 
4 5 6 5 4 4 2 85 83 
9 9 8 9 6 5 2 88 84 
4 4 3 7 5 3 2 87 86 
7 7 4 4 6 5 1 86 
7 5 6 7 9 4 2 90 89 
1 6 4 7 4 8 1 89 
1 6 3 3 5 7 1 89 
3 5 7 4 4 2 3 95 92 91 
8 2 7 5 4 5 3 95 92 91 
1 6 3 4 5 3 1 93 
10 6 7 4 6 4 1 93 
3 6 7 3 3 8 1 94 
4 2 3 7 3 10 1 96 
3 7 6 2 8 4 1 96 
2 6 4 6 4 5 1 97 
6 5 7 5 3 2 2 100 98 
4 6 10 6 6 4 2 99 413 
3 4 4 5 4 7 2 102 101 
3 7 4 7 5 6 1 101 
10 5 5 6 3 2 2 104 103 
1 5 5 2 3 4 2 104 103 
8 1 4 4 5 4 1 105 
2 4 5 5 10 6 1 105 
0 0 0 0 0 0 1 702 
0 0 0 0 0 0 3 107 110 116 
8 0 0 0 0 1 2 115 108 
8 0 0 0 0 10 2 111 109 
5 0 0 0 0 4 3 113 112 408 
5 0 0 0 0 7 1 111 
6 0 0 0 0 2 1 113 
10 0 0 0 0 5 1 114 
3 0 0 0 0 2 1 117 
5 0 0 0 0 5 1 117 
8 0 0 0 0 8 1 117 
7 0 0 0 0 6 1 117 
0 0 0 0 0 0 5 222 264 306 318 360 
0 0 0 0 0 0 4 119 120 121 122 
9 1 1 2 1 1 5 130 126 125 124 123 
5 4 8 6 4 5 5 130 126 125 124 123 
1 5 7 7 3 3 3 126 125 123 
6 8 7 1 6 6 2 126 123 
10 7 10 2 9 6 3 132 129 127 
7 6 4 6 3 3 3 132 129 127 
5 5 4 4 3 6 2 132 127 
3 5 7 2 3 9 3 133 132 131 
7 7 3 2 4 5 1 128 
3 7 3 4 3 3 3 138 133 131 
3 10 7 6 4 5 3 138 133 131 
7 3 5 4 5 4 3 135 134 132 
3 4 3 2 3 4 2 135 134 
8 2 2 1 3 2 2 138 136 
7 4 3 5 6 2 1 134 
7 5 2 5 6 3 1 136 
5 4 5 3 4 5 1 136 
3 5 3 8 10 1 3 145 143 137 
4 4 3 3 2 9 3 141 140 139 
9 7 7 7 9 2 3 145 140 139 
5 7 3 5 5 5 1 142 
8 8 4 5 2 8 1 142 
8 7 3 4 10 5 2 142 201 
3 7 6 8 4 8 1 144 
7 3 5 7 3 5 1 144 
3 4 7 10 6 8 1 146 
1 2 6 5 5 2 1 146 
9 5 3 2 7 6 2 149 147 
8 2 2 8 3 2 2 152 148 
10 8 3 6 4 3 2 151 150 
6 5 8 5 4 6 1 150 
2 7 7 7 8 6 2 154 153 
6 5 6 2 5 4 1 153 
8 7 8 6 4 5 1 153 
1 3 4 5 6 5 3 159 156 155 
8 2 4 6 7 7 3 159 156 155 
1 6 5 5 3 5 1 157 
5 4 4 6 5 9 1 157 
7 2 9 8 6 3 1 158 
6 4 5 6 4 4 1 160 
3 4 4 4 5 7 1 160 
4 2 4 10 6 9 1 161 
10 5 7 6 7 4 2 164 162 
9 5 7 9 5 3 1 163 
6 5 8 3 8 6 2 166 165 
1 4 4 4 5 6 1 165 
4 5 5 6 3 6 2 168 167 
5 6 9 4 4 5 2 168 167 
9 7 4 3 8 7 1 169 
10 6 2 5 7 7 1 169 
0 0 0 0 0 0 1 702 
0 0 0 0 0 0 4 171 172 173 175 
3 1 1 3 2 2 5 184 181 180 179 176 
8 4 4 3 6 6 2 179 174 
6 7 7 5 4 6 1 174 
8 3 5 4 6 5 3 186 184 177 
2 4 6 1 6 7 2 186 177 
5 4 5 5 5 5 1 177 
1 10 3 5 7 4 1 178 
7 4 5 4 10 3 4 190 189 187 182 
1 8 8 8 4 5 4 189 187 186 182 
8 4 2 7 6 4 2 189 183 
8 5 7 5 6 10 2 186 185 
3 6 8 3 5 1 1 183 
10 4 6 5 5 5 1 185 
10 6 5 4 4 1 1 185 
9 10 3 4 5 6 4 197 196 192 188 
8 4 3 6 1 5 2 192 188 
1 2 5 4 5 7 3 196 192 191 
3 6 5 9 10 5 2 193 191 
6 6 5 7 3 10 1 192 
9 4 3 4 5 7 1 191 
10 5 5 6 3 7 1 194 
7 5 6 6 5 4 1 194 
3 6 5 3 5 4 1 194 
9 3 7 4 4 5 1 195 
1 6 7 4 5 7 1 198 
8 2 6 5 4 2 1 198 
9 3 4 4 5 5 1 198 
1 9 5 5 7 2 3 203 201 199 
10 6 4 4 10 3 1 200 
2 4 6 7 4 7 3 207 204 202 
8 5 4 4 1 6 2 204 202 
3 7 5 3 5 6 3 211 209 205 
3 3 3 6 4 3 2 209 204 
9 6 2 4 4 5 1 206 
3 6 4 3 6 4 1 206 
10 4 2 5 2 6 1 208 
6 3 6 7 3 5 1 209 
2 3 6 3 7 5 1 210 
9 5 8 3 5 5 2 210 310 
1 4 5 10 5 5 1 212 
3 10 6 6 6 5 1 212 
3 7 6 9 5 5 1 213 
1 4 6 5 2 4 2 217 214 
7 3 6 2 9 5 2 216 215 
10 5 6 8 5 4 2 220 218 
4 5 5 7 6 6 2 220 219 
5 4 6 5 5 5 1 218 
5 6 4 8 4 5 1 219 
5 7 3 3 7 9 1 221 
3 2 6 5 2 2 1 221 
0 0 0 0 0 0 1 702 
0 0 0 0 0 0 2 223 227 
9 0 1 1 1 1 1 224 
7 0 3 4 5 2 2 226 225 
6 0 9 5 3 6 3 233 231 228 
4 0 5 6 2 5 3 245 231 229 
10 0 5 7 8 2 2 231 229 
5 0 5 2 6 4 1 229 
2 0 9 6 6 6 3 236 235 230 
10 0 3 3 8 2 2 244 232 
10 0 4 5 7 6 2 244 235 
7 0 6 6 5 5 1 234 
10 0 6 7 8 4 1 234 
3 0 5 4 5 3 3 246 243 237 
10 0 5 4 6 6 3 246 243 237 
4 0 5 7 2 3 5 250 246 243 240 239 
3 0 5 7 4 6 3 250 240 238 
10 0 6 10 7 4 1 239 
10 0 7 4 2 4 3 262 251 241 
10 0 3 7 5 5 2 251 241 
1 0 9 3 6 7 2 257 242 
4 0 5 4 4 4 4 261 255 253 247 
5 0 3 3 4 6 3 262 261 247 
3 0 6 5 2 7 2 252 246 
3 0 2 5 3 7 2 252 246 
2 0 6 4 3 6 3 260 254 251 
6 0 7 7 5 5 2 248 647 
1 0 4 3 3 6 1 249 
7 0 3 6 3 6 2 259 252 
5 0 7 2 4 8 2 259 252 
9 0 5 5 7 4 2 255 253 
3 0 6 5 10 3 2 260 254 
5 0 2 4 6 6 2 259 256 
8 0 6 6 4 9 1 256 
3 0 3 5 7 4 1 256 
4 0 1 7 3 7 1 258 
8 0 8 3 2 8 1 259 
6 0 5 7 6 4 1 263 
4 0 5 3 6 6 1 263 
2 0 5 7 7 3 1 263 
7 0 5 7 7 8 1 263 
10 0 5 4 8 2 1 263 
0 0 0 0 0 0 1 702 
0 0 0 0 0 0 2 265 269 
1 1 1 0 1 1 1 266 
9 7 5 0 6 6 2 268 267 
9 7 5 0 2 7 3 277 273 270 
10 4 6 0 5 6 3 287 279 271 
3 8 7 0 4 3 3 279 273 271 
5 2 5 0 3 7 2 279 271 
10 6 4 0 7 4 2 276 272 
2 6 8 0 7 7 2 286 274 
7 4 6 0 8 8 2 286 276 
2 6 1 0 8 5 1 275 
7 7 6 0 6 4 3 290 285 278 
10 2 5 0 5 3 3 290 285 278 
5 6 3 0 2 4 3 290 285 278 
10 5 8 0 4 5 3 295 282 280 
7 2 6 0 2 6 6 304 299 295 292 290 283 
7 4 7 0 6 3 1 281 
10 5 7 0 7 7 4 304 299 292 283 
9 6 4 0 8 2 2 292 283 
5 3 3 0 4 2 2 303 284 
2 8 4 0 4 3 2 297 288 
1 6 8 0 6 6 2 304 289 
8 5 7 0 3 4 2 296 290 
1 2 5 0 5 2 2 296 290 
6 5 6 0 7 8 1 289 
3 7 2 0 4 5 1 291 
9 5 4 0 4 5 3 302 297 294 
9 6 7 0 5 5 2 301 293 
9 6 3 0 8 6 2 297 294 
1 4 4 0 5 1 2 302 296 
7 3 6 0 4 8 2 301 298 
3 7 4 0 7 8 1 296 
2 6 6 0 2 5 1 298 
7 3 4 0 5 7 1 298 
4 6 4 0 7 9 1 300 
9 2 4 0 3 4 1 301 
9 7 4 0 4 5 1 305 
2 5 3 0 7 5 1 305 
3 6 7 0 5 3 1 305 
2 4 9 0 6 6 1 305 
1 6 2 0 4 5 1 305 
0 0 0 0 0 0 1 702 
0 0 0 0 0 0 3 307 308 311 
8 0 1 0 0 0 3 316 312 310 
10 0 3 0 0 0 2 310 309 
4 0 7 0 0 0 1 312 
2 0 5 0 0 0 2 315 314 
4 0 4 0 0 0 2 316 314 
1 0 5 0 0 0 1 313 
1 0 7 0 0 0 1 314 
4 0 6 0 0 0 1 317 
5 0 5 0 0 0 1 317 
1 0 7 0 0 0 1 317 
0 0 0 0 0 0 5 402 434 466 478 510 
0 0 0 0 0 0 2 319 322 
5 2 1 1 0 1 1 320 
1 4 6 4 0 5 3 352 324 321 
3 6 2 6 0 6 4 340 330 328 323 
4 4 5 7 0 3 2 328 326 
5 10 4 5 0 1 1 325 
7 3 7 4 0 3 4 345 340 329 327 
8 1 7 5 0 5 2 329 326 
5 3 6 4 0 4 2 345 327 
8 6 6 5 0 5 3 346 341 331 
3 5 7 4 0 4 2 346 329 
2 3 5 4 0 5 3 341 335 332 
1 3 7 1 0 5 4 346 341 335 333 
9 3 3 5 0 10 2 335 332 
1 9 5 4 0 3 2 349 333 
3 5 5 7 0 4 1 334 
7 8 5 3 0 4 5 358 357 351 344 336 
5 2 4 8 0 6 3 351 344 336 
1 5 6 9 0 2 2 356 337 
2 4 1 5 0 7 2 348 338 
8 5 7 5 0 6 1 339 
5 6 5 5 0 5 2 355 342 
6 7 5 5 0 7 2 346 343 
8 3 5 7 0 8 3 355 354 347 
9 8 3 3 0 3 1 343 
4 9 7 4 0 6 2 354 347 
10 8 6 6 0 4 2 355 348 
3 6 2 3 0 6 1 346 
8 3 1 3 0 9 2 354 353 
5 3 6 7 0 5 1 350 
10 6 7 5 0 6 1 350 
5 4 3 8 0 2 1 350 
2 6 5 4 0 4 1 353 
8 4 6 8 0 4 1 355 
10 4 8 5 0 4 1 353 
1 7 4 5 0 8 1 359 
8 4 10 3 0 9 1 359 
9 6 4 1 0 3 1 359 
5 4 4 8 0 4 1 359 
7 7 4 6 0 8 1 359 
2 4 6 8 0 6 1 359 
0 0 0 0 0 0 1 702 
0 0 0 0 0 0 2 361 367 
2 1 1 2 0 1 2 400 362 
8 4 6 3 0 5 2 365 363 
1 6 4 8 0 9 4 386 373 370 364 
9 6 4 2 0 9 1 366 
8 5 8 4 0 3 4 391 386 371 369 
7 8 4 7 0 3 2 371 368 
7 7 8 4 0 3 3 391 372 370 
5 4 6 3 0 8 2 391 369 
1 6 3 3 0 5 3 390 384 372 
8 4 7 8 0 4 2 390 371 
3 7 8 8 0 5 4 399 384 377 374 
2 2 7 2 0 6 3 399 377 374 
7 3 7 5 0 1 3 390 384 375 
3 4 4 5 0 4 1 375 
1 5 4 5 0 6 2 396 376 
8 4 8 5 0 6 4 398 397 389 378 
9 3 4 6 0 8 4 396 395 389 379 
1 7 3 2 0 10 2 395 379 
10 4 3 5 0 10 2 388 380 
6 4 2 6 0 6 1 381 
1 7 5 7 0 3 2 394 382 
8 7 4 6 0 8 1 383 
7 4 5 7 0 6 2 393 385 
3 7 6 7 0 6 1 385 
8 4 5 4 0 5 1 387 
1 7 4 10 0 3 1 390 
1 1 5 5 0 2 1 392 
5 5 8 5 0 2 1 392 
1 10 3 5 0 6 1 392 
8 4 3 5 0 3 1 393 
5 5 6 4 0 7 1 393 
7 2 6 6 0 2 1 401 
8 6 2 5 0 4 1 401 
10 9 9 4 0 9 1 401 
2 3 3 5 0 4 1 401 
7 3 7 4 0 5 1 401 
1 5 4 8 0 2 1 401 
9 7 5 3 0 2 1 401 
9 7 7 4 0 3 1 401 
3 3 2 3 0 6 1 401 
0 0 0 0 0 0 1 702 
0 0 0 0 0 0 3 403 404 408 
3 3 1 0 0 1 2 410 405 
10 6 4 0 0 5 2 410 405 
9 6 3 0 0 8 2 411 406 
8 4 7 0 0 8 2 412 407 
1 6 5 0 0 9 1 409 
7 5 4 0 0 1 1 410 
8 7 5 0 0 8 3 418 415 413 
2 7 5 0 0 5 1 412 
7 10 4 0 0 4 1 412 
8 10 5 0 0 5 2 418 413 
1 7 5 0 0 4 1 414 
8 5 8 0 0 6 2 419 416 
3 4 4 0 0 4 2 419 416 
4 6 3 0 0 6 2 421 417 
6 5 5 0 0 5 2 425 420 
10 4 6 0 0 6 1 419 
4 4 5 0 0 8 1 420 
8 4 6 0 0 3 1 422 
7 3 5 0 0 6 1 422 
1 3 2 0 0 1 1 423 
6 5 5 0 0 3 2 427 424 
9 6 5 0 0 7 5 432 431 430 428 426 
9 6 6 0 0 4 3 430 428 426 
5 5 5 0 0 4 1 429 
8 2 6 0 0 5 1 428 
7 2 5 0 0 4 1 433 
4 5 9 0 0 5 1 433 
2 2 3 0 0 4 1 433 
10 6 9 0 0 7 1 433 
1 2 5 0 0 4 1 433 
0 0 0 0 0 0 1 702 
0 0 0 0 0 0 3 435 436 464 
10 1 0 0 1 1 2 463 437 
10 5 0 0 4 6 3 463 449 438 
10 10 0 0 4 4 2 449 438 
2 5 0 0 5 3 1 439 
1 5 0 0 4 5 3 461 460 440 
6 5 0 0 4 7 1 441 
3 6 0 0 3 5 3 459 458 442 
2 5 0 0 3 9 2 457 443 
1 4 0 0 7 6 1 444 
2 8 0 0 5 3 1 445 
10 7 0 0 6 7 2 456 446 
3 7 0 0 7 2 1 447 
9 5 0 0 6 6 3 454 451 448 
9 2 0 0 5 2 3 455 452 450 
3 1 0 0 2 10 3 462 456 454 
3 4 0 0 8 5 1 453 
3 4 0 0 4 2 1 452 
10 5 0 0 4 3 1 465 
5 5 0 0 4 3 1 465 
8 7 0 0 5 5 1 465 
2 5 0 0 8 2 1 465 
2 6 0 0 6 10 1 465 
5 7 0 0 5 3 1 465 
3 6 0 0 9 8 1 465 
8 4 0 0 3 4 1 465 
5 5 0 0 4 8 1 465 
9 5 0 0 10 4 1 465 
5 1 0 0 3 3 1 465 
9 6 0 0 5 4 1 465 
2 4 0 0 6 10 1 465 
0 0 0 0 0 0 1 702 
0 0 0 0 0 0 3 467 468 469 
3 0 0 1 0 0 3 474 471 470 
8 0 0 5 0 0 3 474 472 471 
7 0 0 10 0 0 3 476 474 472 
5 0 0 4 0 0 1 472 
10 0 0 4 0 0 2 476 475 
10 0 0 6 0 0 1 473 
9 0 0 2 0 0 1 475 
4 0 0 9 0 0 1 475 
1 0 0 3 0 0 1 477 
3 0 0 6 0 0 1 477 
0 0 0 0 0 0 5 542 554 576 598 620 
0 0 0 0 0 0 3 479 480 508 
7 1 1 1 0 0 2 507 481 
2 5 7 5 0 0 3 507 492 482 
9 5 5 8 0 0 2 492 482 
10 6 6 7 0 0 1 483 
2 5 7 9 0 0 3 506 505 484 
6 6 4 7 0 0 1 485 
7 2 3 7 0 0 2 504 486 
3 6 8 6 0 0 3 503 502 487 
4 5 3 2 0 0 1 488 
4 5 7 6 0 0 1 489 
2 5 8 4 0 0 2 501 490 
2 1 7 3 0 0 1 491 
2 2 4 4 0 0 3 499 494 493 
10 4 4 6 0 0 4 501 497 496 494 
2 9 5 7 0 0 3 500 498 495 
10 6 5 4 0 0 1 498 
8 5 3 6 0 0 1 497 
3 3 6 2 0 0 1 499 
1 4 4 4 0 0 1 509 
3 5 6 6 0 0 1 509 
6 6 3 2 0 0 1 509 
8 6 6 6 0 0 1 509 
1 7 3 3 0 0 1 509 
2 4 2 6 0 0 1 509 
10 5 3 5 0 0 1 509 
7 6 6 7 0 0 1 509 
7 5 4 3 0 0 1 509 
8 5 8 6 0 0 1 509 
3 8 6 4 0 0 1 509 
7 8 6 4 0 0 1 509 
0 0 0 0 0 0 1 702 
0 0 0 0 0 0 3 511 512 518 
2 0 2 1 0 1 2 522 513 
7 0 2 8 0 5 2 522 513 
9 0 5 4 0 6 2 517 514 
6 0 5 5 0 5 2 520 515 
2 0 6 5 0 8 2 529 516 
2 0 5 9 0 5 2 526 519 
7 0 4 9 0 4 1 520 
4 0 2 4 0 6 4 535 529 528 523 
4 0 6 4 0 5 1 521 
4 0 6 4 0 3 1 521 
4 0 6 5 0 7 3 535 528 523 
7 0 6 5 0 6 2 529 524 
4 0 4 6 0 5 1 524 
6 0 5 3 0 5 2 532 525 
1 0 6 2 0 3 1 527 
1 0 2 5 0 5 1 527 
8 0 4 6 0 8 2 540 530 
9 0 6 3 0 8 2 540 530 
2 0 6 6 0 3 2 540 530 
10 0 10 4 0 5 2 534 531 
7 0 6 7 0 4 4 539 538 536 533 
6 0 2 5 0 7 2 536 533 
6 0 3 8 0 3 1 537 
7 0 6 5 0 4 1 536 
8 0 5 7 0 3 1 540 
3 0 5 6 0 5 1 541 
8 0 8 5 0 5 1 541 
6 0 7 4 0 6 1 541 
3 0 4 2 0 6 1 541 
3 0 6 3 0 4 1 541 
0 0 0 0 0 0 1 702 
0 0 0 0 0 0 2 543 545 
5 0 0 0 1 0 2 552 544 
2 0 0 0 6 0 2 550 546 
8 0 0 0 3 0 4 552 550 549 547 
4 0 0 0 6 0 3 551 549 547 
4 0 0 0 4 0 1 548 
1 0 0 0 5 0 1 553 
5 0 0 0 6 0 1 553 
3 0 0 0 7 0 1 553 
7 0 0 0 6 0 1 553 
3 0 0 0 6 0 1 553 
0 0 0 0 0 0 5 642 654 666 678 690 
0 0 0 0 0 0 1 555 
2 0 0 1 0 1 2 560 556 
4 0 0 3 0 6 1 557 
9 0 0 3 0 3 2 566 558 
5 0 0 4 0 4 2 574 559 
5 0 0 5 0 7 4 572 571 565 561 
9 0 0 5 0 4 5 572 571 569 565 562 
8 0 0 4 0 6 3 573 569 562 
8 0 0 6 0 7 2 570 563 
10 0 0 5 0 3 2 568 564 
3 0 0 8 0 4 1 567 
2 0 0 1 0 6 1 567 
6 0 0 4 0 6 1 569 
9 0 0 9 0 3 1 575 
9 0 0 5 0 4 1 575 
8 0 0 8 0 2 1 575 
5 0 0 7 0 9 1 575 
4 0 0 5 0 4 1 575 
10 0 0 2 0 6 1 575 
1 0 0 7 0 9 1 575 
5 0 0 8 0 6 1 575 
0 0 0 0 0 0 1 702 
0 0 0 0 0 0 1 577 
1 0 3 1 0 0 2 580 578 
3 0 2 2 0 0 1 579 
8 0 5 6 0 0 1 581 
4 0 6 5 0 0 1 581 
7 0 5 8 0 0 2 584 582 
2 0 4 7 0 0 2 589 583 
10 0 10 4 0 0 2 593 585 
2 0 4 5 0 0 2 589 585 
2 0 4 3 0 0 3 588 587 586 
6 0 8 5 0 0 4 596 595 592 591 
3 0 5 7 0 0 4 596 595 591 590 
5 0 10 7 0 0 4 596 592 591 590 
4 0 4 4 0 0 3 596 595 590 
3 0 3 4 0 0 1 594 
7 0 4 7 0 0 1 594 
9 0 5 3 0 0 1 594 
2 0 5 6 0 0 1 595 
2 0 4 4 0 0 1 597 
3 0 3 7 0 0 1 597 
7 0 6 5 0 0 1 597 
0 0 0 0 0 0 1 702 
0 0 0 0 0 0 2 599 601 
7 0 1 0 2 0 2 604 600 
8 0 4 0 2 0 1 602 
5 0 4 0 5 0 1 602 
6 0 7 0 6 0 3 607 605 603 
4 0 5 0 5 0 4 618 612 609 606 
5 0 6 0 8 0 3 610 608 607 
6 0 7 0 2 0 3 614 612 610 
7 0 3 0 7 0 2 617 608 
6 0 8 0 1 0 3 617 616 613 
5 0 4 0 8 0 2 616 611 
10 0 6 0 1 0 2 616 613 
10 0 5 0 10 0 3 618 616 615 
4 0 4 0 5 0 1 613 
6 0 7 0 7 0 2 617 615 
2 0 7 0 5 0 1 614 
9 0 6 0 6 0 1 615 
7 0 4 0 4 0 1 619 
6 0 4 0 7 0 1 619 
10 0 3 0 3 0 1 619 
4 0 5 0 6 0 1 619 
0 0 0 0 0 0 1 702 
0 0 0 0 0 0 2 621 623 
7 0 2 1 0 0 2 627 622 
6 0 7 3 0 0 3 635 631 624 
3 0 3 4 0 0 3 635 631 624 
2 0 6 6 0 0 3 640 638 625 
9 0 3 4 0 0 3 634 629 626 
9 0 2 7 0 0 3 639 637 628 
2 0 9 4 0 0 3 638 637 630 
2 0 3 5 0 0 1 630 
4 0 10 5 0 0 2 637 633 
4 0 2 5 0 0 1 632 
5 0 9 2 0 0 2 638 637 
8 0 4 5 0 0 1 633 
2 0 9 6 0 0 1 636 
2 0 6 5 0 0 1 639 
2 0 2 5 0 0 1 638 
4 0 5 7 0 0 1 641 
1 0 6 4 0 0 1 641 
9 0 4 6 0 0 1 641 
1 0 4 6 0 0 1 641 
10 0 4 10 0 0 1 641 
0 0 0 0 0 0 1 702 
0 0 0 0 0 0 5 643 649 650 651 652 
7 0 0 1 0 0 1 644 
5 0 0 8 0 0 1 645 
2 0 0 3 0 0 2 648 646 
1 0 0 5 0 0 1 647 
7 0 0 3 0 0 1 653 
4 0 0 5 0 0 1 653 
6 0 0 7 0 0 1 653 
1 0 0 9 0 0 1 653 
8 0 0 3 0 0 1 653 
9 0 0 6 0 0 1 653 
0 0 0 0 0 0 1 702 
0 0 0 0 0 0 1 655 
10 0 0 1 0 0 2 657 656 
3 0 0 7 0 0 3 662 659 658 
3 0 0 5 0 0 3 662 659 658 
4 0 0 1 0 0 3 664 661 660 
1 0 0 5 0 0 1 660 
1 0 0 4 0 0 1 663 
4 0 0 3 0 0 1 663 
4 0 0 8 0 0 1 663 
9 0 0 9 0 0 1 665 
6 0 0 7 0 0 1 665 
0 0 0 0 0 0 1 702 
0 0 0 0 0 0 1 667 
8 0 1 0 0 0 3 671 670 668 
8 0 6 0 0 0 3 676 674 669 
6 0 4 0 0 0 2 675 672 
9 0 6 0 0 0 2 674 672 
9 0 6 0 0 0 2 674 673 
6 0 5 0 0 0 1 673 
4 0 8 0 0 0 1 677 
3 0 5 0 0 0 1 677 
7 0 5 0 0 0 1 677 
9 0 4 0 0 0 1 677 
0 0 0 0 0 0 1 702 
0 0 0 0 0 0 5 679 681 683 684 686 
7 0 1 0 0 0 1 680 
6 0 6 0 0 0 2 688 682 
3 0 5 0 0 0 2 688 685 
8 0 5 0 0 0 1 685 
6 0 7 0 0 0 1 685 
7 0 8 0 0 0 1 685 
3 0 5 0 0 0 1 687 
9 0 4 0 0 0 1 687 
1 0 4 0 0 0 1 689 
5 0 5 0 0 0 1 689 
0 0 0 0 0 0 1 702 
0 0 0 0 0 0 2 691 693 
4 0 1 0 0 0 3 700 699 692 
4 0 4 0 0 0 3 698 697 694 
2 0 4 0 0 0 2 697 695 
8 0 8 0 0 0 1 695 
8 0 7 0 0 0 1 696 
10 0 3 0 0 0 1 701 
9 0 4 0 0 0 1 701 
8 0 6 0 0 0 1 701 
10 0 8 0 0 0 1 701 
9 0 5 0 0 0 1 701 
0 0 0 0 0 0 1 702 
0 0 0 0 0 0 0 
